/*********************************************
 * OPL 12.6.0.0 Data
 * Author: Adrian Rodriguez Bazaga, Pau Rodriguez Esmerats
 * Creation Date: 09/12/2017 at 00:43:05
 *********************************************/

maxConsec=18;
maxPresence=18;
maxHours=11;
minHours=1;
hours=20;
demand= [7 11 11 10 10 9 9 10 10 11 8 8 7 6 4 3 0 0 0 0  ];
nNurses=11;
